20190827 264 0 0 0
20180817 346 0 0 0
20170721 189 0 0 0
20160929 154 0 0 0
20160617 247 0 0 0
20151012 504 0 0 0
20150521 265 0 0 0
20141105 153 0 0 0
20130722 142 0 0 0
20120802 150 0 0 0
20110714 300 3000 0 0
20100713 500 0 0 0
